
Gurobi 11.0.3 (linux64) logging started Mon 18 Nov 2024 10:37:07 PM CST

Set parameter LogFile to value "/home/dlcole3/graph_abstraction/hierarchical_graphs/git_storage/CS1/HP_low_reserves/gurobi_logs/serial/logfile_ST18_8.log"

Gurobi 11.0.3 (linux64) logging started Mon 18 Nov 2024 10:54:12 PM CST

Set parameter LogFile to value "/home/dlcole3/graph_abstraction/hierarchical_graphs/git_storage/CS1/HP_low_reserves/gurobi_logs/serial/logfile_ST18_8.log"
Gurobi Optimizer version 11.0.3 build v11.0.3rc0 (linux64 - "Ubuntu 18.04.3 LTS")

CPU model: Intel(R) Xeon(R) CPU E5-2698 v4 @ 2.20GHz, instruction set [SSE2|AVX|AVX2]
Thread count: 40 physical cores, 80 logical processors, using up to 20 threads

Optimize a model with 29168 rows, 50688 columns and 136175 nonzeros
Model fingerprint: 0xafa6f09b
Variable types: 46944 continuous, 3744 integer (3744 binary)
Coefficient statistics:
  Matrix range     [6e-01, 2e+04]
  Objective range  [2e+00, 2e+04]
  Bounds range     [5e-02, 2e+05]
  RHS range        [3e-02, 7e+03]
Presolve removed 14268 rows and 38637 columns
Presolve time: 0.33s
Presolved: 14900 rows, 12051 columns, 63640 nonzeros
Variable types: 9037 continuous, 3014 integer (3014 binary)
Found heuristic solution: objective 180478.57749
Found heuristic solution: objective 148872.64775

Root relaxation: objective 5.080594e+04, 7265 iterations, 0.26 seconds (0.19 work units)

    Nodes    |    Current Node    |     Objective Bounds      |     Work
 Expl Unexpl |  Obj  Depth IntInf | Incumbent    BestBd   Gap | It/Node Time

     0     0 50805.9398    0    5 148872.648 50805.9398  65.9%     -    1s
H    0     0                    148872.64773 50805.9398  65.9%     -    1s
H    0     0                    52901.996139 50805.9398  3.96%     -    1s
H    0     0                    52901.996112 50805.9398  3.96%     -    1s
     0     0 50849.9350    0   16 52901.9961 50849.9350  3.88%     -    1s
H    0     0                    52760.182055 50849.9350  3.62%     -    1s
     0     0 50849.9350    0   32 52760.1821 50849.9350  3.62%     -    1s
H    0     0                    51284.405088 50849.9350  0.85%     -    1s
     0     0 50849.9350    0   32 51284.4051 50849.9350  0.85%     -    1s
     0     0 50849.9350    0    1 51284.4051 50849.9350  0.85%     -    2s
     0     0 50849.9350    0   13 51284.4051 50849.9350  0.85%     -    2s
     0     0 50863.1814    0   26 51284.4051 50863.1814  0.82%     -    2s
     0     0 50879.5631    0   13 51284.4051 50879.5631  0.79%     -    2s
H    0     0                    51070.223808 50879.5631  0.37%     -    2s
     0     0 50915.8349    0   13 51070.2238 50915.8349  0.30%     -    2s
     0     2 50915.8349    0   13 51070.2238 50915.8349  0.30%     -    2s
H   50    23                    51034.167181 50920.7001  0.22%   1.9    3s

Cutting planes:
  Gomory: 1
  MIR: 2

Explored 51 nodes (13363 simplex iterations) in 3.22 seconds (1.94 work units)
Thread count was 20 (of 80 available processors)

Solution count 7: 51034.2 51070.2 51284.4 ... 180479

Optimal solution found (tolerance 3.00e-03)
Best objective 5.103416718117e+04, best bound 5.092070013931e+04, gap 0.2223%

User-callback calls 1760, time in user-callback 0.00 sec
